86
155
184
296
2
149
253
72
102
212
388
155
119
389
181
497
19
464
268
488
234
132
104
457
290
118
36
132
77
140
385
420
70
242
367
34
277
30
205
352
182
460
452
2
122
337
421
158
101
232
270
410
432
63
125
297
227
162
254
349
494
80
313
76
335
50
179
287
211
68
449
191
229
8
259
253
240
112
247
202
36
354
413
239
122
286
269
356
